mapa = [|
         9,9,9,9,9,9,9,9|
         9,0,0,0,0,0,0,9|
         9,0,0,0,0,0,4,9|
         9,0,0,3,0,0,0,9|
         9,0,0,0,0,0,0,9|
         9,9,9,9,9,9,9,9|];
dimx = 6;
dimy = 8;
filav = 5;
colav = 6;
from = [1,2,3,4,5,6,7,9,10,11,12,13,14,15,17,18,19,20,21,22,23,25,26,27,28,29,30,31,33,34,35,36,37,38,39,1,2,3,4,5,6,7,9,10,11,12,13,14,15,17,18,19,20,21,22,23,25,26,27,28,29,30,31,33,34,35,36,37,38,39,8,16,24,32,40,41,42,43,44,45,46,47];
to = [2,3,4,5,6,7,8,10,11,12,13,14,15,16,18,19,20,21,22,23,24,26,27,28,29,30,31,32,34,35,36,37,38,39,40,9,10,11,12,13,14,15,17,18,19,20,21,22,23,25,26,27,28,29,30,31,33,34,35,36,37,38,39,41,42,43,44,45,46,47,16,24,32,40,48,42,43,44,45,46,47,48];
